\ Model Ore Mixing Problem
\ LP format - for model browsing. Use MPS format to capture full model detail.
Minimize
  29.11208151382824 a_max_00 + 36.60322108345535 a_max_01
   + 31.55569580309246 a_max_02 + 135.31799729364 a_max_03
   + 943.3962264150942 a_max_10 + 847.4576271186442 a_max_11
   + 909.090909090909 a_max_12 + 2173.913043478261 a_max_13
   + 2631.578947368421 a_max_20 + 12500 a_max_21
   + 4545.454545454546 a_max_22 + 2083.333333333333 a_max_23
   + 2777.777777777778 a_max_30 + 4166.666666666667 a_max_31
   + 4347.826086956522 a_max_32 + 11111.11111111111 a_max_33
   + 1282.051282051282 a_max_40 + 25000 a_max_41
   + 1408.450704225352 a_max_42 + 1250 a_max_43
   + 2439.024390243902 a_max_50 + 735.2941176470589 a_max_51
   + 847.4576271186439 a_max_52 + 2500 a_max_53
   + 93.89671361502343 a_min_00 + 56.56108597285066 a_min_01
   + 75.13148009015775 a_min_02 + 26.58867322520606 a_min_03
   + 2272.727272727273 a_min_10 + 3125 a_min_11 + 2500 a_min_12
   + 961.5384615384614 a_min_13 + 8333.333333333334 a_min_20
   + 2380.952380952381 a_min_21 + 3571.428571428571 a_min_22
   + 50000 a_min_23 + 7142.857142857142 a_min_30
   + 3846.153846153846 a_min_31 + 3703.703703703703 a_min_32
   + 2439.024390243902 a_min_33 + 4545.454545454546 a_min_40
   + 1041.666666666667 a_min_41 + 3448.275862068966 a_min_42
   + 5000 a_min_43 + 917.4311926605507 a_min_50
   + 7142.857142857136 a_min_51 + 3125 a_min_52
   + 909.0909090909093 a_min_53 + 0.0938967136150234 b_min_00
   + 0.0565610859728507 b_min_01 + 0.0751314800901578 b_min_02
   + 0.1353179972936401 b_min_03 + 2.272727272727273 b_min_10
   + 3.125 b_min_11 + 2.5 b_min_12 + 2.173913043478261 b_min_13
   + 8.333333333333334 b_min_20 + 12.5 b_min_21
   + 4.545454545454546 b_min_22 + 50 b_min_23 + 7.142857142857142 b_min_30
   + 4.166666666666667 b_min_31 + 4.347826086956522 b_min_32
   + 11.11111111111111 b_min_33 + 4.545454545454546 b_min_40 + 25 b_min_41
   + 3.448275862068966 b_min_42 + 5 b_min_43 + 2.439024390243901 b_min_50
   + 7.142857142857136 b_min_51 + 3.125 b_min_52 + 2.5 b_min_53
   + 0.0938967136150234 b_max_00 + 0.0565610859728507 b_max_01
   + 0.0751314800901578 b_max_02 + 0.1353179972936401 b_max_03
   + 2.272727272727273 b_max_10 + 3.125 b_max_11 + 2.5 b_max_12
   + 2.173913043478261 b_max_13 + 8.333333333333334 b_max_20
   + 12.5 b_max_21 + 4.545454545454546 b_max_22 + 50 b_max_23
   + 7.142857142857142 b_max_30 + 4.166666666666667 b_max_31
   + 4.347826086956522 b_max_32 + 11.11111111111111 b_max_33
   + 4.545454545454546 b_max_40 + 25 b_max_41 + 3.448275862068966 b_max_42
   + 5 b_max_43 + 2.439024390243901 b_max_50 + 7.142857142857136 b_max_51
   + 3.125 b_max_52 + 2.5 b_max_53
Subject To
 demand_constr_0: x_00 + x_10 + x_20 + x_30 + x_40 + x_50 = 793.7
 capacity_constr_00: x_00 <= 513.4
 capacity_constr_10: x_10 <= 545.8
 capacity_constr_20: x_20 <= 321.6
 capacity_constr_30: x_30 <= 327.2
 capacity_constr_40: x_40 <= 363.5
 capacity_constr_50: x_50 <= 554
 min_quality_constr_00: 41.86 x_00 - 19.94 x_10 + 0.51 x_20 + 41.06 x_30
   - 4.29 x_40 + 7.37 x_50 + 793.7 a_min_00 >= -0
 max_quality_constr_00: - 3.14 x_00 - 64.94 x_10 - 44.49 x_20 - 3.94 x_30
   - 49.29 x_40 - 37.63 x_50 - 793.7 a_max_00 <= -0
 goal_quality_constr_00: 31.21 x_00 - 30.59 x_10 - 10.14 x_20 + 30.41 x_30
   - 14.94 x_40 - 3.28 x_50 + b_min_00 - b_max_00 = -0
 min_quality_constr_10: 0.95 x_00 + 2.04 x_10 + 1.11 x_20 + 1.53 x_30
   + 0.98 x_40 + 0.25 x_50 + 793.7 a_min_10 >= -0
 max_quality_constr_10: - 0.55 x_00 + 0.54 x_10 - 0.39 x_20 + 0.03 x_30
   - 0.52 x_40 - 1.25 x_50 - 793.7 a_max_10 <= -0
 goal_quality_constr_10: 0.51 x_00 + 1.6 x_10 + 0.67 x_20 + 1.09 x_30
   + 0.54 x_40 - 0.19 x_50 + b_min_10 - b_max_10 = -0
 min_quality_constr_20: 6.74 x_00 + 4.9 x_10 + 3.72 x_20 + 4.01 x_30
   + 5.78 x_40 + 3.08 x_50 + 793.7 a_min_20 >= -0
 max_quality_constr_20: 6.24 x_00 + 4.4 x_10 + 3.22 x_20 + 3.51 x_30
   + 5.28 x_40 + 2.58 x_50 - 793.7 a_max_20 <= -0
 goal_quality_constr_20: 6.62 x_00 + 4.78 x_10 + 3.6 x_20 + 3.89 x_30
   + 5.66 x_40 + 2.96 x_50 + b_min_20 - b_max_20 = -0
 min_quality_constr_30: 2.05 x_00 + 2.69 x_10 + 6.77 x_20 + 3.44 x_30
   + 0.62 x_40 + 4.02 x_50 + 793.7 a_min_30 >= -0
 max_quality_constr_30: 1.55 x_00 + 2.19 x_10 + 6.27 x_20 + 2.94 x_30
   + 0.12 x_40 + 3.52 x_50 - 793.7 a_max_30 <= -0
 goal_quality_constr_30: 1.91 x_00 + 2.55 x_10 + 6.63 x_20 + 3.3 x_30
   + 0.48 x_40 + 3.88 x_50 + b_min_30 - b_max_30 = -0
 min_quality_constr_40: 0.47 x_00 + 0.49 x_10 + 0.71 x_20 + 0.63 x_30
   + 0.08 x_40 + 1.32 x_50 + 793.7 a_min_40 >= -0
 max_quality_constr_40: - 0.53 x_00 - 0.51 x_10 - 0.29 x_20 - 0.37 x_30
   - 0.92 x_40 + 0.32 x_50 - 793.7 a_max_40 <= -0
 goal_quality_constr_40: 0.25 x_00 + 0.27 x_10 + 0.49 x_20 + 0.41 x_30
   - 0.14 x_40 + 1.1 x_50 + b_min_40 - b_max_40 = -0
 min_quality_constr_50: - 1.17 x_00 - 0.13 x_10 - 0.08 x_20 + 0.41 x_30
   + 0.64 x_40 + 2.32 x_50 + 793.7 a_min_50 >= -0
 max_quality_constr_50: - 2.67 x_00 - 1.63 x_10 - 1.58 x_20 - 1.09 x_30
   - 0.86 x_40 + 0.82 x_50 - 793.7 a_max_50 <= -0
 goal_quality_constr_50: - 2.26 x_00 - 1.22 x_10 - 1.17 x_20 - 0.68 x_30
   - 0.45 x_40 + 1.23 x_50 + b_min_50 - b_max_50 = -0
 demand_constr_1: x_01 + x_11 + x_21 + x_31 + x_41 + x_51 = 926.9
 capacity_constr_01: x_01 <= 513.4
 capacity_constr_11: x_11 <= 545.8
 capacity_constr_21: x_21 <= 321.6
 capacity_constr_31: x_31 <= 327.2
 capacity_constr_41: x_41 <= 363.5
 capacity_constr_51: x_51 <= 554
 min_quality_constr_01: 41.86 x_01 - 19.94 x_11 + 0.51 x_21 + 41.06 x_31
   - 4.29 x_41 + 7.37 x_51 + 926.9 a_min_01 >= -0
 max_quality_constr_01: - 3.14 x_01 - 64.94 x_11 - 44.49 x_21 - 3.94 x_31
   - 49.29 x_41 - 37.63 x_51 - 926.9 a_max_01 <= -0
 goal_quality_constr_01: 24.18 x_01 - 37.62 x_11 - 17.17 x_21 + 23.38 x_31
   - 21.97 x_41 - 10.31 x_51 + b_min_01 - b_max_01 = -0
 min_quality_constr_11: 0.95 x_01 + 2.04 x_11 + 1.11 x_21 + 1.53 x_31
   + 0.98 x_41 + 0.25 x_51 + 926.9 a_min_11 >= -0
 max_quality_constr_11: - 0.55 x_01 + 0.54 x_11 - 0.39 x_21 + 0.03 x_31
   - 0.52 x_41 - 1.25 x_51 - 926.9 a_max_11 <= -0
 goal_quality_constr_11: 0.63 x_01 + 1.72 x_11 + 0.79 x_21 + 1.21 x_31
   + 0.66 x_41 - 0.07 x_51 + b_min_11 - b_max_11 = -0
 min_quality_constr_21: 6.74 x_01 + 4.9 x_11 + 3.72 x_21 + 4.01 x_31
   + 5.78 x_41 + 3.08 x_51 + 926.9 a_min_21 >= -0
 max_quality_constr_21: 6.24 x_01 + 4.4 x_11 + 3.22 x_21 + 3.51 x_31
   + 5.28 x_41 + 2.58 x_51 - 926.9 a_max_21 <= -0
 goal_quality_constr_21: 6.32 x_01 + 4.48 x_11 + 3.3 x_21 + 3.59 x_31
   + 5.36 x_41 + 2.66 x_51 + b_min_21 - b_max_21 = -0
 min_quality_constr_31: 2.05 x_01 + 2.69 x_11 + 6.77 x_21 + 3.44 x_31
   + 0.62 x_41 + 4.02 x_51 + 926.9 a_min_31 >= -0
 max_quality_constr_31: 1.55 x_01 + 2.19 x_11 + 6.27 x_21 + 2.94 x_31
   + 0.12 x_41 + 3.52 x_51 - 926.9 a_max_31 <= -0
 goal_quality_constr_31: 1.79 x_01 + 2.43 x_11 + 6.51 x_21 + 3.18 x_31
   + 0.36 x_41 + 3.76 x_51 + b_min_31 - b_max_31 = -0
 min_quality_constr_41: 0.47 x_01 + 0.49 x_11 + 0.71 x_21 + 0.63 x_31
   + 0.08 x_41 + 1.32 x_51 + 926.9 a_min_41 >= -0
 max_quality_constr_41: - 0.53 x_01 - 0.51 x_11 - 0.29 x_21 - 0.37 x_31
   - 0.92 x_41 + 0.32 x_51 - 926.9 a_max_41 <= -0
 goal_quality_constr_41: - 0.49 x_01 - 0.47 x_11 - 0.25 x_21 - 0.33 x_31
   - 0.88 x_41 + 0.36 x_51 + b_min_41 - b_max_41 = -0
 min_quality_constr_51: - 1.17 x_01 - 0.13 x_11 - 0.08 x_21 + 0.41 x_31
   + 0.64 x_41 + 2.32 x_51 + 926.9 a_min_51 >= -0
 max_quality_constr_51: - 2.67 x_01 - 1.63 x_11 - 1.58 x_21 - 1.09 x_31
   - 0.86 x_41 + 0.82 x_51 - 926.9 a_max_51 <= -0
 goal_quality_constr_51: - 1.31 x_01 - 0.27 x_11 - 0.22 x_21 + 0.27 x_31
   + 0.5 x_41 + 2.18 x_51 + b_min_51 - b_max_51 = -0
 demand_constr_2: x_02 + x_12 + x_22 + x_32 + x_42 + x_52 = 1121.1
 capacity_constr_02: x_02 <= 513.4
 capacity_constr_12: x_12 <= 545.8
 capacity_constr_22: x_22 <= 321.6
 capacity_constr_32: x_32 <= 327.2
 capacity_constr_42: x_42 <= 363.5
 capacity_constr_52: x_52 <= 554
 min_quality_constr_02: 41.86 x_02 - 19.94 x_12 + 0.51 x_22 + 41.06 x_32
   - 4.29 x_42 + 7.37 x_52 + 1121.1 a_min_02 >= -0
 max_quality_constr_02: - 3.14 x_02 - 64.94 x_12 - 44.49 x_22 - 3.94 x_32
   - 49.29 x_42 - 37.63 x_52 - 1121.1 a_max_02 <= -0
 goal_quality_constr_02: 28.55 x_02 - 33.25 x_12 - 12.8 x_22 + 27.75 x_32
   - 17.6 x_42 - 5.94 x_52 + b_min_02 - b_max_02 = -0
 min_quality_constr_12: 0.95 x_02 + 2.04 x_12 + 1.11 x_22 + 1.53 x_32
   + 0.98 x_42 + 0.25 x_52 + 1121.1 a_min_12 >= -0
 max_quality_constr_12: - 0.55 x_02 + 0.54 x_12 - 0.39 x_22 + 0.03 x_32
   - 0.52 x_42 - 1.25 x_52 - 1121.1 a_max_12 <= -0
 goal_quality_constr_12: 0.55 x_02 + 1.64 x_12 + 0.71 x_22 + 1.13 x_32
   + 0.58 x_42 - 0.15 x_52 + b_min_12 - b_max_12 = -0
 min_quality_constr_22: 6.74 x_02 + 4.9 x_12 + 3.72 x_22 + 4.01 x_32
   + 5.78 x_42 + 3.08 x_52 + 1121.1 a_min_22 >= -0
 max_quality_constr_22: 6.24 x_02 + 4.4 x_12 + 3.22 x_22 + 3.51 x_32
   + 5.28 x_42 + 2.58 x_52 - 1121.1 a_max_22 <= -0
 goal_quality_constr_22: 6.46 x_02 + 4.62 x_12 + 3.44 x_22 + 3.73 x_32
   + 5.5 x_42 + 2.8 x_52 + b_min_22 - b_max_22 = -0
 min_quality_constr_32: 2.05 x_02 + 2.69 x_12 + 6.77 x_22 + 3.44 x_32
   + 0.62 x_42 + 4.02 x_52 + 1121.1 a_min_32 >= -0
 max_quality_constr_32: 1.55 x_02 + 2.19 x_12 + 6.27 x_22 + 2.94 x_32
   + 0.12 x_42 + 3.52 x_52 - 1121.1 a_max_32 <= -0
 goal_quality_constr_32: 1.78 x_02 + 2.42 x_12 + 6.5 x_22 + 3.17 x_32
   + 0.35 x_42 + 3.75 x_52 + b_min_32 - b_max_32 = -0
 min_quality_constr_42: 0.47 x_02 + 0.49 x_12 + 0.71 x_22 + 0.63 x_32
   + 0.08 x_42 + 1.32 x_52 + 1121.1 a_min_42 >= -0
 max_quality_constr_42: - 0.53 x_02 - 0.51 x_12 - 0.29 x_22 - 0.37 x_32
   - 0.92 x_42 + 0.32 x_52 - 1121.1 a_max_42 <= -0
 goal_quality_constr_42: 0.18 x_02 + 0.2 x_12 + 0.42 x_22 + 0.34 x_32
   - 0.21 x_42 + 1.03 x_52 + b_min_42 - b_max_42 = -0
 min_quality_constr_52: - 1.17 x_02 - 0.13 x_12 - 0.08 x_22 + 0.41 x_32
   + 0.64 x_42 + 2.32 x_52 + 1121.1 a_min_52 >= -0
 max_quality_constr_52: - 2.67 x_02 - 1.63 x_12 - 1.58 x_22 - 1.09 x_32
   - 0.86 x_42 + 0.82 x_52 - 1121.1 a_max_52 <= -0
 goal_quality_constr_52: - 1.49 x_02 - 0.45 x_12 - 0.4 x_22 + 0.09 x_32
   + 0.32 x_42 + 2 x_52 + b_min_52 - b_max_52 = -0
 demand_constr_3: x_03 + x_13 + x_23 + x_33 + x_43 + x_53 = 1453.9
 capacity_constr_03: x_03 <= 513.4
 capacity_constr_13: x_13 <= 545.8
 capacity_constr_23: x_23 <= 321.6
 capacity_constr_33: x_33 <= 327.2
 capacity_constr_43: x_43 <= 363.5
 capacity_constr_53: x_53 <= 554
 min_quality_constr_03: 41.86 x_03 - 19.94 x_13 + 0.51 x_23 + 41.06 x_33
   - 4.29 x_43 + 7.37 x_53 + 1453.9 a_min_03 >= -0
 max_quality_constr_03: - 3.14 x_03 - 64.94 x_13 - 44.49 x_23 - 3.94 x_33
   - 49.29 x_43 - 37.63 x_53 - 1453.9 a_max_03 <= -0
 goal_quality_constr_03: 4.25 x_03 - 57.55 x_13 - 37.1 x_23 + 3.45 x_33
   - 41.9 x_43 - 30.24 x_53 + b_min_03 - b_max_03 = -0
 min_quality_constr_13: 0.95 x_03 + 2.04 x_13 + 1.11 x_23 + 1.53 x_33
   + 0.98 x_43 + 0.25 x_53 + 1453.9 a_min_13 >= -0
 max_quality_constr_13: - 0.55 x_03 + 0.54 x_13 - 0.39 x_23 + 0.03 x_33
   - 0.52 x_43 - 1.25 x_53 - 1453.9 a_max_13 <= -0
 goal_quality_constr_13: - 0.09 x_03 + x_13 + 0.07 x_23 + 0.49 x_33
   - 0.06 x_43 - 0.79 x_53 + b_min_13 - b_max_13 = -0
 min_quality_constr_23: 6.74 x_03 + 4.9 x_13 + 3.72 x_23 + 4.01 x_33
   + 5.78 x_43 + 3.08 x_53 + 1453.9 a_min_23 >= -0
 max_quality_constr_23: 6.24 x_03 + 4.4 x_13 + 3.22 x_23 + 3.51 x_33
   + 5.28 x_43 + 2.58 x_53 - 1453.9 a_max_23 <= -0
 goal_quality_constr_23: 6.72 x_03 + 4.88 x_13 + 3.7 x_23 + 3.99 x_33
   + 5.76 x_43 + 3.06 x_53 + b_min_23 - b_max_23 = -0
 min_quality_constr_33: 2.05 x_03 + 2.69 x_13 + 6.77 x_23 + 3.44 x_33
   + 0.62 x_43 + 4.02 x_53 + 1453.9 a_min_33 >= -0
 max_quality_constr_33: 1.55 x_03 + 2.19 x_13 + 6.27 x_23 + 2.94 x_33
   + 0.12 x_43 + 3.52 x_53 - 1453.9 a_max_33 <= -0
 goal_quality_constr_33: 1.64 x_03 + 2.28 x_13 + 6.36 x_23 + 3.03 x_33
   + 0.21 x_43 + 3.61 x_53 + b_min_33 - b_max_33 = -0
 min_quality_constr_43: 0.47 x_03 + 0.49 x_13 + 0.71 x_23 + 0.63 x_33
   + 0.08 x_43 + 1.32 x_53 + 1453.9 a_min_43 >= -0
 max_quality_constr_43: - 0.53 x_03 - 0.51 x_13 - 0.29 x_23 - 0.37 x_33
   - 0.92 x_43 + 0.32 x_53 - 1453.9 a_max_43 <= -0
 goal_quality_constr_43: 0.27 x_03 + 0.29 x_13 + 0.51 x_23 + 0.43 x_33
   - 0.12 x_43 + 1.12 x_53 + b_min_43 - b_max_43 = -0
 min_quality_constr_53: - 1.17 x_03 - 0.13 x_13 - 0.08 x_23 + 0.41 x_33
   + 0.64 x_43 + 2.32 x_53 + 1453.9 a_min_53 >= -0
 max_quality_constr_53: - 2.67 x_03 - 1.63 x_13 - 1.58 x_23 - 1.09 x_33
   - 0.86 x_43 + 0.82 x_53 - 1453.9 a_max_53 <= -0
 goal_quality_constr_53: - 2.27 x_03 - 1.23 x_13 - 1.18 x_23 - 0.69 x_33
   - 0.46 x_43 + 1.22 x_53 + b_min_53 - b_max_53 = -0
Bounds
End
